
Gurobi 7.5.1 (mac64, Python) logging started Tue Apr 17 09:57:47 2018


Gurobi 7.5.1 (mac64, Python) logging started Tue Apr 17 09:57:47 2018


Gurobi 7.5.1 (mac64, Python) logging started Tue Apr 17 09:57:47 2018

Academic license - for non-commercial use only
Academic license - for non-commercial use only
Academic license - for non-commercial use only

Gurobi 7.5.1 (mac64, Python) logging started Tue Apr 17 10:01:59 2018


Gurobi 7.5.1 (mac64, Python) logging started Tue Apr 17 10:01:59 2018

Academic license - for non-commercial use only
Academic license - for non-commercial use only

Gurobi 7.5.1 (mac64, Python) logging started Tue Apr 17 10:01:59 2018

Academic license - for non-commercial use only

Gurobi 7.5.1 (mac64, Python) logging started Tue Apr 17 10:07:05 2018

Academic license - for non-commercial use only

Gurobi 7.5.1 (mac64, Python) logging started Tue Apr 17 10:07:05 2018

Academic license - for non-commercial use only

Gurobi 7.5.1 (mac64, Python) logging started Tue Apr 17 10:07:05 2018

Academic license - for non-commercial use only

Gurobi 7.5.1 (mac64, Python) logging started Tue Apr 17 10:07:06 2018

Academic license - for non-commercial use only

Gurobi 7.5.1 (mac64, Python) logging started Tue Apr 17 10:07:06 2018

Academic license - for non-commercial use only

Gurobi 7.5.1 (mac64, Python) logging started Tue Apr 17 10:07:07 2018

Academic license - for non-commercial use only

Gurobi 7.5.1 (mac64, Python) logging started Tue Apr 17 10:07:07 2018


Gurobi 7.5.1 (mac64, Python) logging started Tue Apr 17 10:07:07 2018

Academic license - for non-commercial use only
Academic license - for non-commercial use only

Gurobi 7.5.1 (mac64, Python) logging started Tue Apr 17 10:07:08 2018


Gurobi 7.5.1 (mac64, Python) logging started Tue Apr 17 10:07:08 2018

Academic license - for non-commercial use only
Academic license - for non-commercial use only

Gurobi 7.5.1 (mac64, Python) logging started Tue Apr 17 10:07:08 2018


Gurobi 7.5.1 (mac64, Python) logging started Tue Apr 17 10:07:08 2018

Academic license - for non-commercial use only
Academic license - for non-commercial use only

Gurobi 7.5.1 (mac64, Python) logging started Tue Apr 17 10:07:08 2018

Academic license - for non-commercial use only

Gurobi 7.5.1 (mac64, Python) logging started Tue Apr 17 10:07:08 2018

Academic license - for non-commercial use only

Gurobi 7.5.1 (mac64, Python) logging started Tue Apr 17 10:07:08 2018


Gurobi 7.5.1 (mac64, Python) logging started Tue Apr 17 10:07:08 2018

Academic license - for non-commercial use only
Academic license - for non-commercial use only

Gurobi 7.5.1 (mac64, Python) logging started Tue Apr 17 10:07:09 2018


Gurobi 7.5.1 (mac64, Python) logging started Tue Apr 17 10:07:09 2018

Academic license - for non-commercial use only
Academic license - for non-commercial use only

Gurobi 7.5.1 (mac64, Python) logging started Tue Apr 17 10:07:09 2018

Academic license - for non-commercial use only

Gurobi 7.5.1 (mac64, Python) logging started Tue Apr 17 10:08:27 2018


Gurobi 7.5.1 (mac64, Python) logging started Tue Apr 17 10:08:27 2018

Academic license - for non-commercial use only
Academic license - for non-commercial use only

Gurobi 7.5.1 (mac64, Python) logging started Tue Apr 17 10:08:27 2018

Academic license - for non-commercial use only

Gurobi 7.5.1 (mac64, Python) logging started Tue Apr 17 10:10:00 2018


Gurobi 7.5.1 (mac64, Python) logging started Tue Apr 17 10:10:00 2018

Academic license - for non-commercial use only
Academic license - for non-commercial use only

Gurobi 7.5.1 (mac64, Python) logging started Tue Apr 17 10:10:00 2018

Academic license - for non-commercial use only

Gurobi 7.5.1 (mac64, Python) logging started Tue Apr 17 10:10:41 2018


Gurobi 7.5.1 (mac64, Python) logging started Tue Apr 17 10:10:41 2018

Academic license - for non-commercial use only
Academic license - for non-commercial use only

Gurobi 7.5.1 (mac64, Python) logging started Tue Apr 17 10:10:41 2018

Academic license - for non-commercial use only

Gurobi 7.5.1 (mac64, Python) logging started Tue Apr 17 10:12:49 2018

Academic license - for non-commercial use only

Gurobi 7.5.1 (mac64, Python) logging started Tue Apr 17 10:44:22 2018

Academic license - for non-commercial use only

Gurobi 7.5.1 (mac64, Python) logging started Tue Apr 17 10:44:50 2018

Academic license - for non-commercial use only
